c User generated cnf file
p cnf 7 26
2 6 -2 0 
6 4 -4 0 
-4 4 6 0 
-2 3 5 0 
7 4 -5 0 
6 -6 2 0 
1 6 -6 0 
4 7 -3 0 
3 7 -4 0 
7 5 -4 0 
-3 6 1 0 
3 7 -1 0 
2 -3 5 0 
1 3 -2 0 
6 -5 2 0 
6 -2 2 0 
-5 4 4 0 
-7 3 7 0 
4 -3 5 0 
2 2 -7 0 
-7 3 5 0 
5 -5 3 0 
7 -4 4 0 
2 -5 6 0 
7 4 -5 0 
4 1 -6 0 
